37 38
27
3 3 23 24
3 4 29 12
3 5 0 0
3 6 0 12
3 7 0 5
3 8 0 30
3 9 18 5
3 11 23 27
3 12 0 18
3 13 26 24
3 14 20 24
3 17 15 3
18 3 15 0
3 21 21 3
4 3 28 9
4 4 33 0
5 4 32 10
4 6 33 4
4 10 24 3
4 22 29 16
4 24 33 14
3 5 18 14
5 4 15 20
5 6 28 3
5 10 24 13
5 14 15 24
12 37 3 0
